(set-logic QF_IDL)
(declare-fun W1 () Bool)
(declare-fun bot () Int)
(declare-fun a () Int)
(declare-fun W4 () Bool)
(declare-fun e () Int)
(declare-fun W2 () Bool)
(declare-fun f () Int)
(declare-fun c () Int)
(declare-fun W3 () Bool)
(declare-fun g () Int)
(declare-fun W5 () Bool)
(declare-fun d () Int)
(declare-fun W6 () Bool)
(declare-fun W7 () Bool)
(declare-fun h () Int)
(declare-fun W8 () Bool)
(assert (let ((.def_0 (< a bot))) (let ((.def_1 (not .def_0))) (let ((.def_2 (= true .def_1))) (let ((.def_3 (< h bot))) (let ((.def_4 (= .def_3 W8))) (let ((.def_5 (< g bot))) (let ((.def_6 (not .def_5))) (let ((.def_7 (= W8 .def_6))) (let ((.def_8 (= .def_5 W7))) (let ((.def_9 (not .def_3))) (let ((.def_10 (= W7 .def_9))) (let ((.def_11 (< d bot))) (let ((.def_12 (= .def_11 W6))) (let ((.def_13 (< c bot))) (let ((.def_14 (not .def_13))) (let ((.def_15 (= W6 .def_14))) (let ((.def_16 (= .def_13 W5))) (let ((.def_17 (not .def_11))) (let ((.def_18 (= W5 .def_17))) (let ((.def_19 (< e bot))) (let ((.def_20 (= .def_19 W3))) (let ((.def_21 (and .def_19 .def_5))) (let ((.def_22 (< g e))) (let ((.def_23 (=> .def_22 .def_21))) (let ((.def_24 (and .def_19 .def_13))) (let ((.def_25 (< c e))) (let ((.def_26 (=> .def_25 .def_24))) (let ((.def_27 (and .def_26 .def_23))) (let ((.def_28 (and .def_25 .def_22))) (let ((.def_29 (= W3 .def_28))) (let ((.def_30 (< f bot))) (let ((.def_31 (= .def_30 W2))) (let ((.def_32 (and .def_30 .def_0))) (let ((.def_33 (< a f))) (let ((.def_34 (=> .def_33 .def_32))) (let ((.def_35 (and .def_30 .def_13))) (let ((.def_36 (< c f))) (let ((.def_37 (=> .def_36 .def_35))) (let ((.def_38 (and .def_37 .def_34))) (let ((.def_39 (and .def_36 .def_33))) (let ((.def_40 (= W2 .def_39))) (let ((.def_41 (and W1 W4))) (let ((.def_42 (= true .def_41))) (let ((.def_43 (= W4 .def_19))) (let ((.def_44 (= W1 .def_1))) (let ((.def_45 (and .def_44 .def_43))) (let ((.def_46 (and .def_45 true .def_42 .def_40 .def_38 .def_31 .def_29 .def_27 .def_20 .def_18 true .def_16 .def_15 true .def_12 .def_10 true .def_8 .def_7 true .def_4 true true .def_2))) .def_46))))))))))))))))))))))))))))))))))))))))))))))))
(check-sat)
(get-model)